ID_groupA,ID_groupB,ID_groupC
4563,21958,84647
4563,21958,84647
4563,21958,84647
74284,74617,84647
74284,41743,84647
82625,41743,84647
44614,41743,84647
74284,74617,84647
4563,21958,84647
4563,21958,84647
44614,41743,84647
74284,74617,84647
74284,74617,84647
82625,41743,84647
4563,21958,84647
44614,21958,84647
4563,74617,84647
4563,21958,84647
4563,21958,84647
4563,21958,84647
4563,41743,84647
44614,21958,84647
4563,21958,84647
44614,21958,84647
74284,74617,84647
74284,74617,84647
4563,21958,84647
15340,21958,84647
4563,74617,84647
4563,21958,84647
4563,21958,84647
4563,21958,84647
4563,41743,84647
4563,21958,84647
4563,21958,84647
44614,21958,84647
4563,21958,84647
74284,74617,84647
4563,21958,84647
74284,21958,84647
4563,21958,84647
4563,21958,84647
4563,21958,84647
4563,21958,84647
15340,21958,84647
4563,21958,84647
44614,21958,84647
4563,21958,84647
74284,21958,84647
4563,21958,84647
74284,74617,84647
74284,74617,84647
74284,74617,84647
74284,41743,84647
74284,21958,84647
4563,74617,84647
44614,74617,84647
74284,36041,84647
74284,74617,84647
74284,74617,84647
74284,74617,84647
74284,41743,84647
74284,74617,84647
4563,21958,84647
4563,21958,84647
44614,74617,84647
74284,74617,84647
74284,74617,84647
74284,74617,84647
82625,78261,84647
74284,74617,84647
4563,21958,84647
4563,21958,84647
44614,41743,84647
74284,74617,84647
74284,74617,84647
44614,41743,84647
74284,41743,84647
4563,21958,84647
4563,21958,84647
44614,41743,84647
4563,21958,84647
74284,74617,84647
44614,41743,84647
4563,21958,84647
4563,21958,84647
44614,41743,84647
74284,36041,84647
74284,74617,84647
74284,74617,84647
4563,21958,84647
44614,21958,84647
4563,21958,84647
74284,21958,84647
4563,21958,84647
44614,36041,84647
74284,74617,84647
74284,74617,84647
4563,21958,84647
44614,36041,84647
44614,41743,84647
44614,41743,84647
74284,36041,84647
74284,74617,84647
74284,74617,84647
